50 154 174 119 85 116 101 53 39 167 70 86 81 195 0 15 168 179 80 108 21 113 147 35 137 76 54 145 189 110 5 58 157 90 87 115 57 67 152 194 82 123 185 23 133 98 181 193 10 45 143 190 48 103 111 33 120 9 63 92 31 105 134 172 129 74 65 13 1 104 109 162 158 126 12 149 34 176 51 91 125 192 161 165 169 38 18 83 141 40 187 153 28 62 93 25 11 88 42 60 73 144 78 139 186 122 68 132 180 124 55 22 159 59 77 89 156 30 121 188 191 135 14 64 27 198 4 52 95 106 170 173 148 117 37 56 177 43 196 112 16 102 107 130 166 75 151 84 72 182 41 178 138 61 66 184 199 24 197 47 142 17 46 140 99 36 100 183 128 164 32 20 136 96 44 3 127 163 49 150 79 69 155 114 146 94 175 160 97 8 171 29 131 26 7 19 71 2 118 6 

